# Solution for model micodag
# Objective value = 1.9773983121541246e+01
s_0_1 0
s_1_0 0
s_0_2 0
s_2_0 2.6807409195327780e-01
s_1_2 0
s_2_1 2.5317425834759311e-01
s_1_3 0
s_3_1 3.4121240964964272e-01
s_1_9 0
s_9_1 0
s_1_12 0
s_12_1 6.1689622583398718e-01
s_1_13 0
s_13_1 3.1583768210463203e-01
s_2_3 0
s_3_2 2.1326056792228876e-01
s_2_4 0
s_4_2 3.5709368100416450e-01
s_2_6 0
s_6_2 0
s_2_8 0
s_8_2 2.2913052409065893e-01
s_3_4 0
s_4_3 5.4959689537556677e-01
s_3_6 0
s_6_3 0
s_3_7 0
s_7_3 0
s_3_8 0
s_8_3 4.4063579168705225e-01
s_3_9 0
s_9_3 3.0322969946275569e-01
s_3_12 0
s_12_3 0
s_3_13 0
s_13_3 4.9464608025708046e-01
s_4_5 0
s_5_4 0
s_4_6 0
s_6_4 3.8293061895518044e-01
s_4_7 0
s_7_4 0
s_4_8 0
s_8_4 0
s_4_11 0
s_11_4 3.4913277284162580e-01
s_5_6 0
s_6_5 6.3608868632664439e-01
s_5_7 0
s_7_5 5.2538844172890764e-01
s_5_14 0
s_14_5 4.7143209795979146e-01
s_6_8 0
s_8_6 5.2126087795645093e-01
s_7_8 0
s_8_7 0
s_7_9 0
s_9_7 3.6373925309062858e+00
s_7_10 0
s_10_7 3.6373925309062858e+00
s_7_11 0
s_11_7 3.6373925309062858e+00
s_8_11 0
s_11_8 1.7915683242792868e-01
s_9_12 0
s_12_9 3.1758147491905842e-01
s_12_13 0
s_13_12 2.8278827892664493e-01
s_0_0 9.7681217041044155e-01
s_1_1 6.5336775049705631e-01
s_2_2 6.7924761461524419e-01
s_3_3 7.3803953132714639e-01
s_4_4 0.912674422032731
s_5_5 0.641642968711543
s_6_6 9.5048018484814456e-01
s_7_7 3.6373925309062858e+00
s_8_8 7.4167692898328008e-01
s_9_9 9.2504639570198677e-01
s_10_10 7.2638591012139742e-01
s_11_11 6.1781652302147849e-01
s_12_12 9.4122470517609624e-01
s_13_13 7.4683624673789328e-01
s_14_14 1.0628116589401611e+00
Gamma_0_0 9.8833808507536636e-01
Gamma_0_1 0
Gamma_0_2 0
Gamma_0_3 0
Gamma_0_4 0
Gamma_0_5 0
Gamma_0_6 0
Gamma_0_7 0
Gamma_0_8 0
Gamma_0_9 0
Gamma_0_10 0
Gamma_0_11 0
Gamma_0_12 0
Gamma_0_13 0
Gamma_0_14 0
Gamma_1_0 0
Gamma_1_1 0.808311666683747
Gamma_1_2 0
Gamma_1_3 0
Gamma_1_4 0
Gamma_1_5 0
Gamma_1_6 0
Gamma_1_7 0
Gamma_1_8 0
Gamma_1_9 0
Gamma_1_10 0
Gamma_1_11 0
Gamma_1_12 0
Gamma_1_13 0
Gamma_1_14 0
Gamma_2_0 -0.517758719823508
Gamma_2_1 -5.0316424589550590e-01
Gamma_2_2 8.2416479821407373e-01
Gamma_2_3 0
Gamma_2_4 0
Gamma_2_5 0
Gamma_2_6 0
Gamma_2_7 0
Gamma_2_8 0
Gamma_2_9 0
Gamma_2_10 0
Gamma_2_11 0
Gamma_2_12 0
Gamma_2_13 0
Gamma_2_14 0
Gamma_3_0 0
Gamma_3_1 5.8413389702160223e-01
Gamma_3_2 4.6180143776550708e-01
Gamma_3_3 8.5909227171890357e-01
Gamma_3_4 0
Gamma_3_5 0
Gamma_3_6 0
Gamma_3_7 0
Gamma_3_8 0
Gamma_3_9 0
Gamma_3_10 0
Gamma_3_11 0
Gamma_3_12 0
Gamma_3_13 0
Gamma_3_14 0
Gamma_4_0 0
Gamma_4_1 0
Gamma_4_2 5.9757315954129442e-01
Gamma_4_3 7.4134802581214687e-01
Gamma_4_4 9.5533995102933467e-01
Gamma_4_5 0
Gamma_4_6 0
Gamma_4_7 0
Gamma_4_8 0
Gamma_4_9 0
Gamma_4_10 0
Gamma_4_11 0
Gamma_4_12 0
Gamma_4_13 0
Gamma_4_14 0
Gamma_5_0 0
Gamma_5_1 0
Gamma_5_2 0
Gamma_5_3 0
Gamma_5_4 0
Gamma_5_5 8.0102619726919266e-01
Gamma_5_6 0
Gamma_5_7 0
Gamma_5_8 0
Gamma_5_9 0
Gamma_5_10 0
Gamma_5_11 0
Gamma_5_12 0
Gamma_5_13 0
Gamma_5_14 0
Gamma_6_0 0
Gamma_6_1 0
Gamma_6_2 0
Gamma_6_3 0
Gamma_6_4 -6.1881388070661536e-01
Gamma_6_5 0.797551682542671
Gamma_6_6 9.7492573299105434e-01
Gamma_6_7 0
Gamma_6_8 0
Gamma_6_9 0
Gamma_6_10 0
Gamma_6_11 0
Gamma_6_12 0
Gamma_6_13 0
Gamma_6_14 0
Gamma_7_0 0
Gamma_7_1 0
Gamma_7_2 0
Gamma_7_3 0
Gamma_7_4 0
Gamma_7_5 -0.724836838004877
Gamma_7_6 0
Gamma_7_7 0.979530219897033
Gamma_7_8 0
Gamma_7_9 0
Gamma_7_10 0
Gamma_7_11 0
Gamma_7_12 0
Gamma_7_13 0
Gamma_7_14 0
Gamma_8_0 0
Gamma_8_1 0
Gamma_8_2 4.7867580270017812e-01
Gamma_8_3 6.6380403108677566e-01
Gamma_8_4 0
Gamma_8_5 0
Gamma_8_6 -7.2198398732690161e-01
Gamma_8_7 0
Gamma_8_8 8.6120667030816744e-01
Gamma_8_9 0
Gamma_8_10 0
Gamma_8_11 0
Gamma_8_12 0
Gamma_8_13 0
Gamma_8_14 0
Gamma_9_0 0
Gamma_9_1 0
Gamma_9_2 0
Gamma_9_3 5.5066296358367550e-01
Gamma_9_4 0
Gamma_9_5 0
Gamma_9_6 0
Gamma_9_7 -5.9090849291988312e-01
Gamma_9_8 0
Gamma_9_9 9.6179332275805862e-01
Gamma_9_10 0
Gamma_9_11 0
Gamma_9_12 0
Gamma_9_13 0
Gamma_9_14 0
Gamma_10_0 0
Gamma_10_1 0
Gamma_10_2 0
Gamma_10_3 0
Gamma_10_4 0
Gamma_10_5 0
Gamma_10_6 0
Gamma_10_7 4.6065718342254514e-01
Gamma_10_8 0
Gamma_10_9 0
Gamma_10_10 8.5228276418181625e-01
Gamma_10_11 0
Gamma_10_12 0
Gamma_10_13 0
Gamma_10_14 0
Gamma_11_0 0
Gamma_11_1 0
Gamma_11_2 0
Gamma_11_3 0
Gamma_11_4 -5.9087458300524887e-01
Gamma_11_5 0
Gamma_11_6 0
Gamma_11_7 6.4152840801380873e-01
Gamma_11_8 4.2326921979743504e-01
Gamma_11_9 0
Gamma_11_10 0
Gamma_11_11 7.8601305524875320e-01
Gamma_11_12 0
Gamma_11_13 0
Gamma_11_14 0
Gamma_12_0 0
Gamma_12_1 -7.8542741601881194e-01
Gamma_12_2 0
Gamma_12_3 0
Gamma_12_4 0
Gamma_12_5 0
Gamma_12_6 0
Gamma_12_7 0
Gamma_12_8 0
Gamma_12_9 -5.6354367614148548e-01
Gamma_12_10 0
Gamma_12_11 0
Gamma_12_12 9.7016735936440190e-01
Gamma_12_13 0
Gamma_12_14 0
Gamma_13_0 0
Gamma_13_1 0.561994379068539
Gamma_13_2 0
Gamma_13_3 7.0331079918986061e-01
Gamma_13_4 0
Gamma_13_5 0
Gamma_13_6 0
Gamma_13_7 0
Gamma_13_8 0
Gamma_13_9 0
Gamma_13_10 0
Gamma_13_11 0
Gamma_13_12 5.3177841148982874e-01
Gamma_13_13 8.6419687961592040e-01
Gamma_13_14 0
Gamma_14_0 0
Gamma_14_1 0
Gamma_14_2 0
Gamma_14_3 0
Gamma_14_4 0
Gamma_14_5 6.8660913040811833e-01
Gamma_14_6 0
Gamma_14_7 0
Gamma_14_8 0
Gamma_14_9 0
Gamma_14_10 0
Gamma_14_11 0
Gamma_14_12 0
Gamma_14_13 0
Gamma_14_14 1.0309275721117181e+00
psi_0 6
psi_1 6
psi_2 5
psi_3 4
psi_4 3
psi_5 4
psi_6 2
psi_7 3
psi_8 1
psi_9 2
psi_10 0
psi_11 0
psi_12 1
psi_13 0
psi_14 0
g_0_0 0
g_0_1 0
g_0_2 0
g_0_3 0
g_0_4 0
g_0_5 0
g_0_6 0
g_0_7 0
g_0_8 0
g_0_9 0
g_0_10 0
g_0_11 0
g_0_12 0
g_0_13 0
g_0_14 0
g_1_0 0
g_1_1 0
g_1_2 0
g_1_3 0
g_1_4 0
g_1_5 0
g_1_6 0
g_1_7 0
g_1_8 0
g_1_9 0
g_1_10 0
g_1_11 0
g_1_12 0
g_1_13 0
g_1_14 0
g_2_0 1
g_2_1 1
g_2_2 0
g_2_3 0
g_2_4 0
g_2_5 0
g_2_6 0
g_2_7 0
g_2_8 0
g_2_9 0
g_2_10 0
g_2_11 0
g_2_12 0
g_2_13 0
g_2_14 0
g_3_0 0
g_3_1 1
g_3_2 1
g_3_3 0
g_3_4 0
g_3_5 0
g_3_6 0
g_3_7 0
g_3_8 0
g_3_9 0
g_3_10 0
g_3_11 0
g_3_12 0
g_3_13 0
g_3_14 0
g_4_0 0
g_4_1 0
g_4_2 1
g_4_3 1
g_4_4 0
g_4_5 0
g_4_6 0
g_4_7 0
g_4_8 0
g_4_9 0
g_4_10 0
g_4_11 0
g_4_12 0
g_4_13 0
g_4_14 0
g_5_0 0
g_5_1 0
g_5_2 0
g_5_3 0
g_5_4 0
g_5_5 0
g_5_6 0
g_5_7 0
g_5_8 0
g_5_9 0
g_5_10 0
g_5_11 0
g_5_12 0
g_5_13 0
g_5_14 0
g_6_0 0
g_6_1 0
g_6_2 0
g_6_3 0
g_6_4 1
g_6_5 1
g_6_6 0
g_6_7 0
g_6_8 0
g_6_9 0
g_6_10 0
g_6_11 0
g_6_12 0
g_6_13 0
g_6_14 0
g_7_0 0
g_7_1 0
g_7_2 0
g_7_3 0
g_7_4 0
g_7_5 1
g_7_6 0
g_7_7 0
g_7_8 0
g_7_9 0
g_7_10 0
g_7_11 0
g_7_12 0
g_7_13 0
g_7_14 0
g_8_0 0
g_8_1 0
g_8_2 1
g_8_3 1
g_8_4 0
g_8_5 0
g_8_6 1
g_8_7 0
g_8_8 0
g_8_9 0
g_8_10 0
g_8_11 0
g_8_12 0
g_8_13 0
g_8_14 0
g_9_0 0
g_9_1 0
g_9_2 0
g_9_3 1
g_9_4 0
g_9_5 0
g_9_6 0
g_9_7 1
g_9_8 0
g_9_9 0
g_9_10 0
g_9_11 0
g_9_12 0
g_9_13 0
g_9_14 0
g_10_0 0
g_10_1 0
g_10_2 0
g_10_3 0
g_10_4 0
g_10_5 0
g_10_6 0
g_10_7 1
g_10_8 0
g_10_9 0
g_10_10 0
g_10_11 0
g_10_12 0
g_10_13 0
g_10_14 0
g_11_0 0
g_11_1 0
g_11_2 0
g_11_3 0
g_11_4 1
g_11_5 0
g_11_6 0
g_11_7 1
g_11_8 1
g_11_9 0
g_11_10 0
g_11_11 0
g_11_12 0
g_11_13 0
g_11_14 0
g_12_0 0
g_12_1 1
g_12_2 0
g_12_3 0
g_12_4 0
g_12_5 0
g_12_6 0
g_12_7 0
g_12_8 0
g_12_9 1
g_12_10 0
g_12_11 0
g_12_12 0
g_12_13 0
g_12_14 0
g_13_0 0
g_13_1 1
g_13_2 0
g_13_3 1
g_13_4 0
g_13_5 0
g_13_6 0
g_13_7 0
g_13_8 0
g_13_9 0
g_13_10 0
g_13_11 0
g_13_12 1
g_13_13 0
g_13_14 0
g_14_0 0
g_14_1 0
g_14_2 0
g_14_3 0
g_14_4 0
g_14_5 1
g_14_6 0
g_14_7 0
g_14_8 0
g_14_9 0
g_14_10 0
g_14_11 0
g_14_12 0
g_14_13 0
g_14_14 0
T_0 2.3460896793110919e-02
T_1 4.2561513748096047e-01
T_2 3.8676954247389972e-01
T_3 3.0375789033230660e-01
T_4 9.1376064358698272e-02
T_5 4.4372325348847141e-01
T_6 5.0787964353389725e-02
T_7 4.1364379405663954e-02
T_8 2.9884153631424226e-01
T_9 7.7911385211891115e-02
T_10 3.1967384874248239e-01
T_11 4.8156375391926076e-01
T_12 6.0573373880032477e-02
T_13 2.9190933242131223e-01
T_14 -6.0917904866087724e-02
